# Solution for model GasLib-40
# Objective value = 9.9702085077001087e+01
loadshed[innode_1] 0
loadshed[innode_2] 0
loadshed[innode_3] 0
loadshed[innode_4] 0
loadshed[innode_5] 0
loadshed[innode_6] 0
loadshed[innode_7] 0
loadshed[innode_8] 0
loadshed[source_1] 2.0123817822843226e-02
loadshed[source_2] 1.6928084760810003e-01
loadshed[source_3] 4.4126084087636508e-01
loadshed[sink_1] 1
loadshed[sink_2] 0
loadshed[sink_3] 0
loadshed[sink_4] 0
loadshed[sink_5] 0
loadshed[sink_6] 0
loadshed[sink_7] 0
loadshed[sink_8] 0
loadshed[sink_9] 9.9864258874839618e-01
loadshed[sink_10] 0
loadshed[sink_11] 0
loadshed[sink_12] 1
loadshed[sink_13] 0
loadshed[sink_14] 0
loadshed[sink_15] 0
loadshed[sink_16] 0
loadshed[sink_17] 0
loadshed[sink_18] 0
loadshed[sink_19] 0
loadshed[sink_20] 0
loadshed[sink_21] 1
loadshed[sink_22] 1.5531207470789027e-01
loadshed[sink_23] 0
loadshed[sink_24] 9.4247856418199571e-01
loadshed[sink_25] 0
loadshed[sink_26] 1
loadshed[sink_27] 0
loadshed[sink_28] 0
loadshed[sink_29] 0
flow[source_1,sink_3] 1.5490889782821509e+02
flow[innode_1,sink_16] 1.6354166666666970e+01
flow[innode_6,sink_13] 26.1479377955027
flow[sink_13,sink_14] 9.7937711288360312e+00
flow[sink_14,sink_10] -6.5603955378305727e+00
flow[sink_25,sink_26] 0
flow[sink_26,sink_9] 0
flow[sink_9,sink_18] -2.2199329842514715e-02
flow[sink_26,sink_4] 0
flow[sink_4,sink_20] -6.3435804017330923e+01
flow[sink_18,sink_6] -1.6376365996509183e+01
flow[sink_25,innode_8] -1.2220056449487872e+02
flow[sink_6,sink_7] -4.6544699774723895e+01
flow[sink_6,sink_22] 1.3814167111548045e+01
flow[sink_7,sink_24] 9.4071514827361180e-01
flow[sink_22,sink_1] 0
flow[sink_24,sink_21] 0
flow[sink_21,sink_12] 0
flow[sink_7,sink_5] -6.3839581589664178e+01
flow[sink_5,sink_17] -8.0193748256330849e+01
flow[sink_17,sink_4] -4.7081637350664252e+01
flow[sink_17,sink_8] -4.9466277572333269e+01
flow[sink_3,sink_23] 16.3541666666697
flow[sink_8,sink_20] -6.5820444238999940e+01
flow[sink_25,sink_20] 1.4561041492299759e+02
flow[sink_25,sink_15] -6.5911954890287674e+01
flow[sink_15,sink_29] -4.7790808654929720e+01
flow[sink_29,sink_28] 1.6354166666667879e+01
flow[sink_29,sink_2] 50.8294795686913
flow[sink_2,sink_15] 3.4475312902024626e+01
flow[sink_29,innode_7] -1.3132862155695557e+02
flow[innode_4,sink_19] 8.8331228871177416e+01
flow[sink_19,innode_3] 2.7143738238347122e+01
flow[innode_4,innode_5] 0
flow[sink_27,innode_5] 0
flow[sink_27,sink_19] -1.6354166666679703e+01
flow[sink_10,sink_11] 3.2708333333333641e+01
flow[sink_10,innode_2] -2.8479157299483916e+01
flow[sink_10,innode_3] -2.7143738238347122e+01
flow[innode_6,sink_25] -26.1479377955027
flow[sink_11,innode_1] 1.6354166666666970e+01
flow[sink_19,innode_2] 2.8479157299483916e+01
flow[source_3,innode_4] 8.8331228871177416e+01
flow[source_2,innode_7] 1.3132862155695557e+02
flow[sink_3,innode_8] 1.2220056449487872e+02
pressure[innode_1] 7.5777784455521456e+01
pressure[innode_2] 7.7434726849174666e+01
pressure[innode_3] 7.7374620114540761e+01
pressure[innode_4] 81.01325
pressure[innode_5] 7.7083596852031164e+01
pressure[innode_6] 7.5780864264958907e+01
pressure[innode_7] 81.01325
pressure[innode_8] 8.0495448731904190e+01
pressure[source_1] 81.01325
pressure[source_2] 81.01325
pressure[source_3] 81.01325
pressure[sink_1] 1.0132500000000002e+00
pressure[sink_2] 7.6213155770613326e+01
pressure[sink_3] 8.0495448731904190e+01
pressure[sink_4] 36.4138410285628
pressure[sink_5] 2.8640681507885468e+01
pressure[sink_6] 1.4513509688750930e+00
pressure[sink_7] 2.0902987510095770e+00
pressure[sink_8] 3.6481027258953844e+01
pressure[sink_9] 1.0132499999999152e+00
pressure[sink_10] 75.929485763125
pressure[sink_11] 7.5777784455521456e+01
pressure[sink_12] 1.01325
pressure[sink_13] 7.5636715053618644e+01
pressure[sink_14] 7.5619188265938760e+01
pressure[sink_15] 76.1006014722248
pressure[sink_16] 7.4756134620703776e+01
pressure[sink_17] 3.4614536095920684e+01
pressure[sink_18] 1.0140532379189995e+00
pressure[sink_19] 7.7434726849174666e+01
pressure[sink_20] 4.1067786571664726e+01
pressure[sink_21] 1.01325
pressure[sink_22] 1.0132500000000002e+00
pressure[sink_23] 80.3307307202444
pressure[sink_24] 1.01325
pressure[sink_25] 7.5780864264958907e+01
pressure[sink_26] 1.0132500000000002e+00
pressure[sink_27] 7.7083596852031164e+01
pressure[sink_28] 7.7205441579018114e+01
pressure[sink_29] 77.5007238526353
interdiction[source_1,sink_3] 0
interdiction[innode_1,sink_16] 0
interdiction[innode_6,sink_13] 0
interdiction[sink_13,sink_14] 0
interdiction[sink_14,sink_10] 0
interdiction[sink_25,sink_26] 1
interdiction[sink_26,sink_9] 0
interdiction[sink_9,sink_18] 0
interdiction[sink_26,sink_4] 1
interdiction[sink_4,sink_20] 0
interdiction[sink_18,sink_6] 0
interdiction[sink_25,innode_8] 0
interdiction[sink_6,sink_7] 0
interdiction[sink_6,sink_22] 0
interdiction[sink_7,sink_24] 0
interdiction[sink_22,sink_1] 0
interdiction[sink_24,sink_21] 0
interdiction[sink_21,sink_12] 0
interdiction[sink_7,sink_5] 0
interdiction[sink_5,sink_17] 0
interdiction[sink_17,sink_4] 0
interdiction[sink_17,sink_8] 0
interdiction[sink_3,sink_23] 0
interdiction[sink_8,sink_20] 0
interdiction[sink_25,sink_20] 0
interdiction[sink_25,sink_15] 0
interdiction[sink_15,sink_29] 0
interdiction[sink_29,sink_28] 0
interdiction[sink_29,sink_2] 0
interdiction[sink_2,sink_15] 0
interdiction[sink_29,innode_7] 0
interdiction[innode_4,sink_19] 0
interdiction[sink_19,innode_3] 0
interdiction[innode_4,innode_5] 1
interdiction[sink_27,innode_5] 0
interdiction[sink_27,sink_19] 0
interdiction[sink_10,sink_11] 0
interdiction[sink_10,innode_2] 0
interdiction[sink_10,innode_3] 0
interdiction[innode_6,sink_25] 0
interdiction[sink_11,innode_1] 0
interdiction[sink_19,innode_2] 0
interdiction[source_3,innode_4] 0
interdiction[source_2,innode_7] 0
interdiction[sink_3,innode_8] 0
WCcheckFlow[source_1,sink_3] 39
WCcheckFlow[innode_1,sink_16] 1
WCcheckFlow[innode_6,sink_13] 13
WCcheckFlow[sink_13,sink_14] 12
WCcheckFlow[sink_14,sink_10] 11
WCcheckFlow[sink_25,sink_26] 0
WCcheckFlow[sink_26,sink_9] -1
WCcheckFlow[sink_9,sink_18] -2
WCcheckFlow[sink_26,sink_4] 0
WCcheckFlow[sink_4,sink_20] -14
WCcheckFlow[sink_18,sink_6] -3
WCcheckFlow[sink_25,innode_8] -36
WCcheckFlow[sink_6,sink_7] -6
WCcheckFlow[sink_6,sink_22] 2
WCcheckFlow[sink_7,sink_24] 3
WCcheckFlow[sink_22,sink_1] 1
WCcheckFlow[sink_24,sink_21] 2
WCcheckFlow[sink_21,sink_12] 1
WCcheckFlow[sink_7,sink_5] -10
WCcheckFlow[sink_5,sink_17] -11
WCcheckFlow[sink_17,sink_4] -13
WCcheckFlow[sink_17,sink_8] 1
WCcheckFlow[sink_3,sink_23] 1
WCcheckFlow[sink_8,sink_20] 0
WCcheckFlow[sink_25,sink_20] 15
WCcheckFlow[sink_25,sink_15] 6
WCcheckFlow[sink_15,sink_29] 5
WCcheckFlow[sink_29,sink_28] 1
WCcheckFlow[sink_29,sink_2] 1
WCcheckFlow[sink_2,sink_15] 0
WCcheckFlow[sink_29,innode_7] 2
WCcheckFlow[innode_4,sink_19] -2
WCcheckFlow[sink_19,innode_3] -5
WCcheckFlow[innode_4,innode_5] 0
WCcheckFlow[sink_27,innode_5] 1
WCcheckFlow[sink_27,sink_19] -2
WCcheckFlow[sink_10,sink_11] 3
WCcheckFlow[sink_10,innode_2] 1
WCcheckFlow[sink_10,innode_3] 6
WCcheckFlow[innode_6,sink_25] -14
WCcheckFlow[sink_11,innode_1] 2
WCcheckFlow[sink_19,innode_2] 0
WCcheckFlow[source_3,innode_4] -1
WCcheckFlow[source_2,innode_7] -1
WCcheckFlow[sink_3,innode_8] 37
